20391.7
20391.7
20192.8
20192.8
20192.8
20192.8
20192.8
20192.8
20192.8
20044.4
20044.4
20044.4
19701.2
19701.2
19701.2
19701.2
19701.2
19525.6
19525.6
19525.6
19525.6
19525.6
19525.6
19525.6
19525.6
19525.6
19525.6
19224.8
19224.8
19224.8
19222
19222
19041
19041
19041
19041
19041
19017.6
19017.6
18461.2
18461.2
18461.2
18461.2
18461.2
18461.2
18461.2
18461.2
18461.2
18461.2
18286.5
18286.5
18286.5
18286.5
18286.5
18251.2
17890.6
17890.6
17890.6
17890.6
17771.6
17771.6
17771.6
17771.6
17752.7
17752.7
17752.7
17752.7
17752.7
17752.7
17752.7
17752.7
17752.7
17648
17648
17516.3
17516.3
17516.3
17516.3
17438.2
17438.2
17166.5
17166.5
17166.5
17166.5
17166.5
16895
16895
16895
16895
16895
16895
16895
16895
16895
16895
16895
16895
16895
16895
16895
